(set-logic QF_BV)
(declare-fun _substvar_839_ () (_ BitVec 12))
(declare-fun _substvar_837_ () (_ BitVec 12))
(declare-fun _substvar_843_ () (_ BitVec 12))
(declare-fun _substvar_828_ () (_ BitVec 12))
(declare-fun _substvar_793_ () (_ BitVec 12))
(declare-fun _substvar_850_ () (_ BitVec 12))
(declare-fun _substvar_835_ () (_ BitVec 12))
(declare-fun _substvar_796_ () (_ BitVec 12))
(declare-fun _substvar_799_ () (_ BitVec 12))
(declare-fun _substvar_788_ () (_ BitVec 12))
(declare-fun _substvar_791_ () (_ BitVec 12))
(declare-fun _substvar_809_ () (_ BitVec 12))
(declare-fun _substvar_802_ () (_ BitVec 12))
(declare-fun _substvar_813_ () (_ BitVec 12))
(declare-fun _substvar_773_ () (_ BitVec 12))
(declare-fun _substvar_808_ () (_ BitVec 12))
(assert (or false false false false false false false false false false false false (and (bvugt _substvar_837_ _substvar_843_) true (= _substvar_788_ (_ bv0 12)))))
(assert (or false false false false false false false false false false false false false (and true true (= _substvar_791_ (bvsub (bvshl (_ bv1 12) _substvar_850_) (_ bv0 12)))) false false false false (and true true (bvugt (bvshl _substvar_788_ _substvar_850_) (_ bv0 12)) (= _substvar_791_ _substvar_809_)) false false false false false))
(assert (or false false false false false false false false false false false false false false false false false false false false false false false false false false false false false false false false (and true true (bvugt _substvar_791_ _substvar_788_) (= _substvar_793_ (bvsub _substvar_791_ _substvar_788_))) false false false false false))
(assert (or false false false false false false false false false false false false false false false false false false (and true true (bvugt (_ bv511 12) _substvar_796_) (= _substvar_799_ (bvsub (_ bv511 12) _substvar_796_))) false false false false false false false false false false false false false false false false false false false false false false false false false false false false (and true true (bvugt _substvar_773_ _substvar_788_) (= _substvar_799_ (bvsub _substvar_793_ (_ bv0 12)))) false false (and true true (bvugt _substvar_796_ _substvar_788_) (= _substvar_799_ (bvsub _substvar_796_ _substvar_788_))) false false false false false false false false false (and true true (bvugt _substvar_791_ _substvar_796_) (= _substvar_799_ (bvsub _substvar_791_ _substvar_796_))) false false false false false false false false false false false false false false))
(assert (or false false false false false false false false false false false false false false false false false false false false false false false false false false false false false false false false false false false false false false false false false false false false false false false false false false false false false (and true true (bvugt _substvar_835_ (_ bv0 12)) (= _substvar_802_ (_ bv0 12))) false false false false false false false false false false false false false false false false false false false false false false false false false false false false false false false false false false false false false false false false false (and true (bvugt (_ bv1 12) _substvar_839_) (= _substvar_802_ (bvsub (_ bv1 12) _substvar_799_))) false false))
(assert (or false false false false false false false false false false false false false false false false false false false false false false false false false false false false false false false false false false false false false false false false false false false false false false false false false false false false false false false false false false false (and true true (bvugt _substvar_828_ (_ bv0 12)) (= _substvar_808_ (bvsub _substvar_793_ _substvar_788_))) false false false false false false false false false false false false false false false false false false false false false false false false false false false (and true (bvugt _substvar_793_ (_ bv0 12)) (= _substvar_808_ (bvsub _substvar_793_ (_ bv1 12)))) false false false false false false false (and true true (bvugt _substvar_793_ _substvar_799_) (= _substvar_808_ (bvsub _substvar_793_ _substvar_799_))) false false false false false false false false false false false false false false false false false false false false false false false false false false false false))
(assert (or false false false false false false false false false false false false false false false false false false (and true true true (= _substvar_813_ (bvsub (_ bv511 12) _substvar_796_))) false false false false false false false false false false false false false false false false false false false false false false false false false false (and true true (bvugt _substvar_796_ (_ bv0 12)) (= _substvar_813_ (_ bv0 12))) false false false false false false false false false false false false false false false false false false false false false false false false false false false false false false false false false false false false false false false (and true true true (= _substvar_813_ (bvsub _substvar_793_ _substvar_791_))) false false false false false false false false false false false false false false false false false false false false false false (and true true (bvugt _substvar_799_ _substvar_793_) (= _substvar_813_ (_ bv0 12))) false false false false false false false (and true (bvugt _substvar_796_ (_ bv1 12)) (= _substvar_813_ (bvsub _substvar_796_ (_ bv1 12)))) false false false false (and true true (bvugt _substvar_796_ _substvar_799_) (= _substvar_813_ (bvsub _substvar_796_ _substvar_799_))) false false false false false false false false false false false false false false false false false false false false false false false false false false false false false false false))
(assert (or false (= (_ bv905 12) _substvar_791_) (= (_ bv905 12) _substvar_793_) (= (_ bv905 12) _substvar_796_) (= (_ bv905 12) _substvar_799_) (= (_ bv905 12) _substvar_802_) (= (_ bv905 12) _substvar_808_) (= (_ bv905 12) _substvar_813_) false))
(assert (or false (= (_ bv485 12) _substvar_791_) (= (_ bv485 12) _substvar_793_) (= (_ bv485 12) _substvar_796_) false false (= (_ bv485 12) _substvar_808_) (= (_ bv485 12) _substvar_813_) false))
(check-sat)
(exit)
